Instance0
Gap
100.00%
100.00%
75.42%
73.26%
63.89%
57.35%
57.14%
57.08%
56.07%
55.70%
CPXPARAM_MIP_Cuts_Gomory-MIRCut:Gomory 3
CPXPARAM_MIP_Cuts_Gomory-MIRCut:MIRCut 5
Instance1
Gap
100.00%
100.00%
100.00%
99.28%
95.92%
89.62%
86.87%
82.45%
82.11%
74.18%
74.02%
CPXPARAM_MIP_Cuts_Gomory-MIRCut:Gomory 0
CPXPARAM_MIP_Cuts_Gomory-MIRCut:MIRCut 15
Instance2
Gap
100.00%
100.00%
68.57%
63.95%
60.03%
55.34%
55.34%
55.27%
54.09%
52.20%
51.30%
50.89%
CPXPARAM_MIP_Cuts_Gomory-MIRCut:Gomory 7
CPXPARAM_MIP_Cuts_Gomory-MIRCut:MIRCut 2
Instance3
Gap
100.00%
100.00%
99.62%
99.49%
95.57%
88.41%
88.00%
85.74%
CPXPARAM_MIP_Cuts_Gomory-MIRCut:Gomory 0
CPXPARAM_MIP_Cuts_Gomory-MIRCut:MIRCut 6
Instance4
Gap
100.00%
100.00%
100.00%
76.86%
72.59%
68.63%
68.63%
65.57%
65.57%
52.89%
52.38%
CPXPARAM_MIP_Cuts_Gomory-MIRCut:Gomory 2
CPXPARAM_MIP_Cuts_Gomory-MIRCut:MIRCut 3
Instance5
Gap
100.00%
100.00%
100.00%
99.40%
99.04%
90.14%
86.55%
75.55%
69.28%
68.64%
CPXPARAM_MIP_Cuts_Gomory-MIRCut:Gomory 0
CPXPARAM_MIP_Cuts_Gomory-MIRCut:MIRCut 8
Instance6
Gap
100.00%
100.00%
69.98%
65.46%
52.33%
48.50%
CPXPARAM_MIP_Cuts_Gomory-MIRCut:Gomory 0
CPXPARAM_MIP_Cuts_Gomory-MIRCut:MIRCut 0
Instance7
Gap
100.00%
100.00%
100.00%
99.99%
94.79%
92.81%
92.73%
89.13%
89.13%
87.60%
CPXPARAM_MIP_Cuts_Gomory-MIRCut:Gomory 1
CPXPARAM_MIP_Cuts_Gomory-MIRCut:MIRCut 7
Instance8
Gap
100.00%
100.00%
59.21%
53.34%
46.02%
45.98%
45.29%
45.25%
44.59%
44.52%
37.46%
30.84%
30.20%
CPXPARAM_MIP_Cuts_Gomory-MIRCut:Gomory 3
CPXPARAM_MIP_Cuts_Gomory-MIRCut:MIRCut 4
Instance9
Gap
100.00%
100.00%
100.00%
99.37%
99.21%
92.89%
87.71%
87.71%
87.40%
85.96%
85.71%
85.44%
85.39%
85.01%
84.84%
84.82%
84.79%
84.78%
82.69%
82.69%
82.65%
82.10%
78.17%
78.13%
CPXPARAM_MIP_Cuts_Gomory-MIRCut:Gomory 9
CPXPARAM_MIP_Cuts_Gomory-MIRCut:MIRCut 12
Instance10
Gap
100.00%
100.00%
62.81%
59.89%
50.16%
43.46%
36.70%
28.96%
21.74%
CPXPARAM_MIP_Cuts_Gomory-MIRCut:Gomory 0
CPXPARAM_MIP_Cuts_Gomory-MIRCut:MIRCut 3
Instance11
Gap
100.00%
100.00%
99.97%
99.93%
96.05%
94.53%
90.54%
82.94%
82.94%
80.95%
78.29%
CPXPARAM_MIP_Cuts_Gomory-MIRCut:Gomory 0
CPXPARAM_MIP_Cuts_Gomory-MIRCut:MIRCut 10
Instance12
Gap
100.00%
100.00%
69.71%
64.56%
53.47%
52.82%
51.97%
51.14%
48.77%
47.72%
33.34%
32.93%
32.79%
30.02%
29.94%
29.83%
29.79%
CPXPARAM_MIP_Cuts_Gomory-MIRCut:Gomory 5
CPXPARAM_MIP_Cuts_Gomory-MIRCut:MIRCut 8
Instance13
Gap
100.00%
100.00%
100.00%
99.35%
99.30%
95.41%
91.99%
91.84%
89.42%
89.38%
CPXPARAM_MIP_Cuts_Gomory-MIRCut:Gomory 0
CPXPARAM_MIP_Cuts_Gomory-MIRCut:MIRCut 7
Instance14
Gap
100.00%
100.00%
67.25%
61.80%
56.11%
37.92%
28.76%
28.76%
28.76%
26.39%
CPXPARAM_MIP_Cuts_Gomory-MIRCut:Gomory 1
CPXPARAM_MIP_Cuts_Gomory-MIRCut:MIRCut 5
Instance15
Gap
100.00%
100.00%
99.71%
99.31%
92.62%
91.73%
90.54%
89.14%
83.08%
77.43%
77.43%
75.80%
CPXPARAM_MIP_Cuts_Gomory-MIRCut:Gomory 1
CPXPARAM_MIP_Cuts_Gomory-MIRCut:MIRCut 11
Instance16
Gap
100.00%
100.00%
60.68%
59.49%
51.21%
33.97%
33.78%
28.67%
28.47%
28.27%
28.25%
28.25%
24.88%
23.88%
23.80%
CPXPARAM_MIP_Cuts_Gomory-MIRCut:Gomory 6
CPXPARAM_MIP_Cuts_Gomory-MIRCut:MIRCut 3
Instance17
Gap
100.00%
100.00%
100.00%
99.43%
99.32%
94.30%
91.08%
90.11%
88.43%
86.33%
86.03%
84.27%
83.94%
83.90%
83.72%
83.67%
83.66%
82.81%
82.78%
CPXPARAM_MIP_Cuts_Gomory-MIRCut:Gomory 0
CPXPARAM_MIP_Cuts_Gomory-MIRCut:MIRCut 16
Instance18
Gap
100.00%
100.00%
57.84%
51.78%
44.78%
43.92%
43.86%
43.72%
39.48%
39.04%
38.97%
38.55%
38.52%
31.31%
31.24%
30.59%
CPXPARAM_MIP_Cuts_Gomory-MIRCut:Gomory 7
CPXPARAM_MIP_Cuts_Gomory-MIRCut:MIRCut 3
Instance19
Gap
100.00%
100.00%
99.54%
99.29%
94.90%
91.24%
87.75%
83.98%
83.98%
83.84%
83.69%
81.83%
78.57%
78.57%
CPXPARAM_MIP_Cuts_Gomory-MIRCut:Gomory 1
CPXPARAM_MIP_Cuts_Gomory-MIRCut:MIRCut 14
Instance20
Gap
100.00%
100.00%
89.26%
78.36%
62.09%
60.86%
60.86%
60.86%
55.65%
54.98%
54.33%
54.25%
CPXPARAM_MIP_Cuts_Gomory-MIRCut:Gomory 1
CPXPARAM_MIP_Cuts_Gomory-MIRCut:MIRCut 5
Instance21
Gap
100.00%
100.00%
100.00%
99.52%
98.54%
93.15%
88.59%
85.67%
81.10%
81.10%
81.10%
77.77%
CPXPARAM_MIP_Cuts_Gomory-MIRCut:Gomory 2
CPXPARAM_MIP_Cuts_Gomory-MIRCut:MIRCut 9
Instance22
Gap
100.00%
100.00%
88.62%
70.72%
55.45%
55.41%
53.34%
53.10%
52.54%
52.49%
52.31%
42.60%
39.64%
38.71%
37.84%
37.57%
35.44%
35.32%
35.25%
35.24%
33.53%
32.37%
CPXPARAM_MIP_Cuts_Gomory-MIRCut:Gomory 12
CPXPARAM_MIP_Cuts_Gomory-MIRCut:MIRCut 4
Instance23
Gap
100.00%
100.00%
99.78%
99.46%
92.88%
82.72%
46.51%
31.90%
CPXPARAM_MIP_Cuts_Gomory-MIRCut:Gomory 0
CPXPARAM_MIP_Cuts_Gomory-MIRCut:MIRCut 9
Instance24
Gap
100.00%
100.00%
84.00%
78.89%
67.07%
63.81%
60.82%
60.82%
60.82%
60.01%
52.82%
52.56%
CPXPARAM_MIP_Cuts_Gomory-MIRCut:Gomory 4
CPXPARAM_MIP_Cuts_Gomory-MIRCut:MIRCut 4
Instance25
Gap
100.00%
100.00%
99.59%
99.18%
95.56%
87.86%
87.38%
83.25%
80.87%
75.12%
CPXPARAM_MIP_Cuts_Gomory-MIRCut:Gomory 2
CPXPARAM_MIP_Cuts_Gomory-MIRCut:MIRCut 8
Instance26
Gap
100.00%
100.00%
84.48%
68.92%
56.67%
40.11%
31.67%
29.71%
29.02%
27.89%
27.30%
26.96%
26.41%
24.01%
23.74%
23.59%
23.25%
17.11%
16.98%
16.89%
16.88%
16.81%
16.78%
16.74%
16.69%
16.51%
CPXPARAM_MIP_Cuts_Gomory-MIRCut:Gomory 15
CPXPARAM_MIP_Cuts_Gomory-MIRCut:MIRCut 9
Instance27
Gap
100.00%
100.00%
99.81%
99.61%
97.97%
85.82%
81.49%
79.91%
78.10%
77.12%
46.93%
CPXPARAM_MIP_Cuts_Gomory-MIRCut:Gomory 1
CPXPARAM_MIP_Cuts_Gomory-MIRCut:MIRCut 5
Instance28
Gap
100.00%
100.00%
100.00%
69.66%
59.68%
59.38%
58.69%
57.17%
49.97%
47.43%
45.12%
43.94%
43.44%
43.13%
42.75%
42.42%
41.90%
41.40%
41.20%
40.59%
40.57%
40.47%
40.33%
40.18%
34.54%
34.31%
34.09%
CPXPARAM_MIP_Cuts_Gomory-MIRCut:Gomory 13
CPXPARAM_MIP_Cuts_Gomory-MIRCut:MIRCut 5
Instance29
Gap
100.00%
100.00%
100.00%
100.00%
97.08%
94.41%
88.59%
82.79%
78.87%
72.31%
71.98%
71.52%
71.22%
71.05%
71.05%
65.38%
65.11%
CPXPARAM_MIP_Cuts_Gomory-MIRCut:Gomory 3
CPXPARAM_MIP_Cuts_Gomory-MIRCut:MIRCut 11
Instance30
Gap
100.00%
100.00%
69.10%
61.90%
53.33%
52.70%
45.61%
44.11%
42.44%
39.86%
39.45%
36.02%
35.49%
34.89%
31.30%
31.11%
31.06%
30.92%
30.76%
30.71%
30.64%
30.58%
30.30%
29.48%
29.13%
27.48%
27.11%
27.03%
26.48%
26.29%
26.22%
26.08%
26.06%
26.03%
25.73%
25.72%
25.71%
19.73%
19.70%
CPXPARAM_MIP_Cuts_Gomory-MIRCut:Gomory 24
CPXPARAM_MIP_Cuts_Gomory-MIRCut:MIRCut 6
Instance31
Gap
100.00%
100.00%
99.75%
99.32%
92.61%
89.38%
84.61%
55.60%
55.60%
51.87%
51.87%
14.81%
14.81%
14.81%
14.81%
CPXPARAM_MIP_Cuts_Gomory-MIRCut:Gomory 0
CPXPARAM_MIP_Cuts_Gomory-MIRCut:MIRCut 4
Instance32
Gap
100.00%
100.00%
100.00%
69.77%
63.45%
57.73%
49.92%
49.92%
49.92%
38.30%
37.63%
CPXPARAM_MIP_Cuts_Gomory-MIRCut:Gomory 2
CPXPARAM_MIP_Cuts_Gomory-MIRCut:MIRCut 5
Instance33
Gap
100.00%
100.00%
100.00%
98.79%
92.64%
79.94%
78.34%
70.67%
68.95%
67.43%
66.65%
66.62%
CPXPARAM_MIP_Cuts_Gomory-MIRCut:Gomory 0
CPXPARAM_MIP_Cuts_Gomory-MIRCut:MIRCut 9
Instance34
Gap
100.00%
100.00%
66.38%
51.74%
39.25%
39.25%
39.25%
34.07%
32.03%
27.96%
CPXPARAM_MIP_Cuts_Gomory-MIRCut:Gomory 1
CPXPARAM_MIP_Cuts_Gomory-MIRCut:MIRCut 4
Instance35
Gap
100.00%
100.00%
99.38%
98.77%
88.10%
77.55%
77.54%
75.19%
64.69%
61.63%
CPXPARAM_MIP_Cuts_Gomory-MIRCut:Gomory 1
CPXPARAM_MIP_Cuts_Gomory-MIRCut:MIRCut 8
Instance36
Gap
100.00%
100.00%
100.00%
85.27%
82.45%
71.87%
66.91%
60.60%
60.32%
58.84%
56.48%
56.25%
55.89%
54.34%
54.24%
54.09%
53.94%
51.94%
51.82%
51.80%
51.78%
51.75%
51.74%
51.73%
51.73%
51.71%
51.70%
48.72%
48.47%
CPXPARAM_MIP_Cuts_Gomory-MIRCut:Gomory 12
CPXPARAM_MIP_Cuts_Gomory-MIRCut:MIRCut 6
Instance37
Gap
100.00%
100.00%
100.00%
100.00%
100.00%
97.51%
93.44%
92.59%
86.89%
86.61%
CPXPARAM_MIP_Cuts_Gomory-MIRCut:Gomory 0
CPXPARAM_MIP_Cuts_Gomory-MIRCut:MIRCut 10
Instance38
Gap
100.00%
100.00%
78.46%
58.43%
34.42%
28.24%
25.60%
24.94%
23.95%
23.51%
23.42%
23.39%
23.30%
23.17%
23.10%
23.03%
23.01%
23.01%
22.80%
22.79%
22.59%
CPXPARAM_MIP_Cuts_Gomory-MIRCut:Gomory 16
CPXPARAM_MIP_Cuts_Gomory-MIRCut:MIRCut 5
Instance39
Gap
100.00%
100.00%
99.77%
99.55%
95.76%
90.91%
88.81%
74.53%
58.70%
56.91%
42.17%
CPXPARAM_MIP_Cuts_Gomory-MIRCut:Gomory 0
CPXPARAM_MIP_Cuts_Gomory-MIRCut:MIRCut 9
